
--- Job DIETER.gms Start 10/22/18 18:15:18 24.7.4 r58773 WEX-WEI x86 64bit/MS Windows
GAMS 24.7.4   Copyright (C) 1987-2016 GAMS Development. All rights reserved
Licensee: Medium MUD - 10 User License                   S170316:1123AO-GEN
          Deutsches Institut fuer Wirtschaftsforschung DIW, AbteilungDC3975
          License for teaching and research at degree granting institutions
          License Admin: Claudia Kemfert, bbibra@diw.de                    
--- Starting compilation
--- DIETER.gms(153) 3 Mb
--- .dataload.gms(405) 3 Mb
--- GDXin=C:\Users\Lenovo\Documents\GitHub\prosumage\Code\Prosumage_Opt\Dieter_Module\Original\Data_input.gdx
--- .dataload.gms(457) 3 Mb
--- GDXin=C:\Users\Lenovo\Documents\GitHub\prosumage\Code\Prosumage_Opt\Dieter_Module\Original\time_series.gdx
--- .dataload.gms(787) 25 Mb
--- DIETER.gms(296) 25 Mb
--- .model.gms(1347) 25 Mb
--- DIETER.gms(475) 25 Mb
--- .fix.gms(315) 25 Mb
--- DIETER.gms(476) 25 Mb
--- .scenario.gms(122) 25 Mb
--- DIETER.gms(635) 25 Mb
--- .report.gms(1411) 25 Mb
--- DIETER.gms(658) 25 Mb
--- .report_to_excel.gms(196) 25 Mb
--- DIETER.gms(666) 26 Mb
--- Starting execution: elapsed 0:00:00.124
--- DIETER.gms(3202) 129 Mb
---
--- collecting and writing gdx file 
---
--- Generating LP model DIETER
--- DIETER.gms(1352) 146 Mb  14 secs
--- DIETER.gms(1430) 171 Mb  18 secs
--- DIETER.gms(1622) 233 Mb  18 secs
--- DIETER.gms(3202) 236 Mb
---   324,152 rows  324,136 columns  1,380,229 non-zeroes
---   122,646 nl-code  87,601 nl-non-zeroes
--- DIETER.gms(3202) 234 Mb
--- Executing CPLEX: elapsed 0:00:56.336

GUSS             24.7.4 r58773 Released Sep 19, 2016 WEI x86 64bit/MS Windows 
Reading parameter(s) from scenario dictionary
>>  Logoption 2
>>  Optfile 1
>>  Skipbasecase 1
--- Scenario Variable with potential updates identified: phi_min_res

IBM ILOG CPLEX   24.7.4 r58773 Released Sep 19, 2016 WEI x86 64bit/MS Windows 
--- GAMS/Cplex licensed for continuous and discrete problems.
Cplex 12.6.3.0

Reading parameter(s) from "C:\Users\Lenovo\Documents\GitHub\prosumage\Code\Prosumage_Opt\Dieter_Module\Original\cplex.opt"
>>  lpmethod 4
>>  threads 4
>>  epgap 1e-3
Finished reading from "C:\Users\Lenovo\Documents\GitHub\prosumage\Code\Prosumage_Opt\Dieter_Module\Original\cplex.opt"
Reading data...
Starting Cplex...
Space for names approximately 21.24 Mb
Use option 'names no' to turn use of names off
Tried aggregator 1 time.
LP Presolve eliminated 12669 rows and 38917 columns.
Aggregator did 6 substitutions.
Reduced LP has 311477 rows, 285213 columns, and 1035684 nonzeros.
Presolve time = 0.66 sec. (380.74 ticks)
Parallel mode: using up to 4 threads for barrier.

***NOTE: Found 16 dense columns.

Number of nonzeros in lower triangle of A*A' = 1069630
Using Approximate Minimum Degree ordering
Total time for automatic ordering = 0.30 sec. (126.95 ticks)
Summary statistics for Cholesky factor:
  Threads                   = 4
  Rows in Factor            = 311493
  Integer space required    = 794284
  Total non-zeros in factor = 3921105
  Total FP ops to factor    = 72969629
 Itn      Primal Obj        Dual Obj  Prim Inf Upper Inf  Dual Inf Inf Ratio
   0  4.6266034e+012 -1.0647068e+011 2.02e+011 1.43e+007 2.23e+010 1.00e+000
   1  7.1513698e+011  1.0559150e+010 3.00e+010 2.13e+006 3.31e+009 1.10e-006
   2  3.7721606e+011  3.7995685e+010 1.49e+010 1.06e+006 6.80e+008 9.08e-008
   3  1.6194448e+011  6.7732099e+010 4.20e+009 2.99e+005 1.63e+008 5.61e-008
   4  1.4152265e+011  6.4676929e+010 3.33e+009 2.37e+005 3.86e+007 1.86e-007
   5  9.2248978e+010  4.4057897e+010 1.89e+009 1.34e+005 1.72e+007 3.61e-007
   6  8.4502896e+010  4.1060720e+010 1.63e+009 1.16e+005 1.15e+007 4.90e-007
   7  6.8119259e+010  3.6186232e+010 1.14e+009 8.08e+004 6.10e+006 8.67e-007
   8  5.0493081e+010  3.5122174e+010 5.66e+008 4.03e+004 4.06e+006 1.47e-006
   9  4.5604540e+010  3.5086885e+010 3.99e+008 2.84e+004 3.94e+006 1.63e-006
  10  4.3812673e+010  3.4709116e+010 3.37e+008 2.40e+004 2.48e+006 2.82e-006
  11  4.0938645e+010  3.4608136e+010 2.36e+008 1.68e+004 1.98e+006 3.76e-006
  12  3.8172153e+010  3.4353827e+010 1.46e+008 1.04e+004 1.42e+006 5.77e-006
  13  3.6496594e+010  3.4116044e+010 9.16e+007 6.51e+003 9.27e+005 1.01e-005
  14  3.5373808e+010  3.3913280e+010 5.59e+007 3.98e+003 5.56e+005 2.04e-005
  15  3.5039280e+010  3.3812999e+010 4.56e+007 3.25e+003 4.00e+005 3.13e-005
  16  3.5008913e+010  3.3814974e+010 4.45e+007 3.16e+003 3.88e+005 3.25e-005
  17  3.4634375e+010  3.3721507e+010 3.31e+007 2.36e+003 2.57e+005 5.60e-005
  18  3.4559924e+010  3.3717121e+010 3.07e+007 2.19e+003 2.47e+005 5.89e-005
  19  3.4221742e+010  3.3706172e+010 2.00e+007 1.42e+003 2.25e+005 6.72e-005
  20  3.4092172e+010  3.3694008e+010 1.57e+007 1.12e+003 1.94e+005 8.16e-005
  21  3.3954926e+010  3.3673402e+010 1.14e+007 8.08e+002 1.53e+005 1.12e-004
  22  3.3898288e+010  3.3655052e+010 9.66e+006 6.87e+002 1.24e+005 1.46e-004
  23  3.3795681e+010  3.3625329e+010 6.72e+006 4.78e+002 8.49e+004 2.42e-004
  24  3.3777407e+010  3.3611381e+010 6.22e+006 4.42e+002 6.90e+004 3.14e-004
  25  3.3765551e+010  3.3611201e+010 5.84e+006 4.15e+002 6.86e+004 3.16e-004
  26  3.3742490e+010  3.3601681e+010 5.23e+006 3.72e+002 5.86e+004 3.85e-004
  27  3.3708896e+010  3.3593038e+010 4.33e+006 3.08e+002 4.95e+004 4.77e-004
  28  3.3691710e+010  3.3575486e+010 3.87e+006 2.76e+002 3.10e+004 8.79e-004
  29  3.3653140e+010  3.3561409e+010 2.86e+006 2.03e+002 1.68e+004 1.95e-003
  30  3.3598991e+010  3.3553334e+010 1.45e+006 1.03e+002 9.46e+003 3.62e-003
  31  3.3573139e+010  3.3550944e+010 7.83e+005 5.57e+001 7.27e+003 4.94e-003
  32  3.3565394e+010  3.3549983e+010 5.67e+005 4.03e+001 6.10e+003 6.11e-003
  33  3.3562158e+010  3.3549321e+010 4.76e+005 3.39e+001 5.24e+003 7.34e-003
  34  3.3559237e+010  3.3548343e+010 3.94e+005 2.80e+001 4.00e+003 1.02e-002
  35  3.3555022e+010  3.3547829e+010 2.78e+005 1.98e+001 3.40e+003 1.24e-002
  36  3.3552826e+010  3.3547484e+010 2.17e+005 1.54e+001 2.98e+003 1.45e-002
  37  3.3551857e+010  3.3547171e+010 1.90e+005 1.35e+001 2.60e+003 1.71e-002
  38  3.3550487e+010  3.3546818e+010 1.52e+005 1.08e+001 2.18e+003 2.11e-002
  39  3.3550076e+010  3.3546611e+010 1.41e+005 1.00e+001 1.95e+003 2.41e-002
  40  3.3549779e+010  3.3546435e+010 1.33e+005 9.47e+000 1.76e+003 2.73e-002
  41  3.3549424e+010  3.3546217e+010 1.24e+005 8.80e+000 1.53e+003 3.21e-002
  42  3.3548511e+010  3.3545763e+010 1.00e+005 7.10e+000 1.08e+003 4.91e-002
  43  3.3547929e+010  3.3545624e+010 8.52e+004 6.05e+000 9.51e+002 5.65e-002
  44  3.3547476e+010  3.3545465e+010 7.34e+004 5.23e+000 8.04e+002 6.85e-002
  45  3.3547338e+010  3.3545333e+010 6.99e+004 4.99e+000 6.87e+002 8.20e-002
  46  3.3547093e+010  3.3545143e+010 6.38e+004 4.55e+000 5.24e+002 1.11e-001
  47  3.3546322e+010  3.3545032e+010 4.49e+004 3.21e+000 4.36e+002 1.36e-001
  48  3.3545736e+010  3.3544924e+010 3.02e+004 2.15e+000 3.41e+002 1.78e-001
  49  3.3545494e+010  3.3544859e+010 2.40e+004 1.71e+000 2.79e+002 2.23e-001
  50  3.3545401e+010  3.3544817e+010 2.15e+004 1.54e+000 2.40e+002 2.64e-001
  51  3.3545310e+010  3.3544715e+010 1.92e+004 1.37e+000 1.48e+002 4.54e-001
  52  3.3545284e+010  3.3544667e+010 1.86e+004 1.33e+000 1.11e+002 6.09e-001
  53  3.3544913e+010  3.3544633e+010 9.64e+003 6.88e-001 8.65e+001 7.74e-001
  54  3.3544898e+010  3.3544628e+010 9.27e+003 6.62e-001 8.19e+001 8.21e-001
  55  3.3544718e+010  3.3544609e+010 4.61e+003 3.29e-001 6.43e+001 1.06e+000
  56  3.3544710e+010  3.3544607e+010 4.40e+003 3.12e-001 6.23e+001 1.10e+000
  57  3.3544707e+010  3.3544605e+010 4.31e+003 3.06e-001 5.97e+001 1.15e+000
  58  3.3544668e+010  3.3544601e+010 3.21e+003 2.29e-001 5.54e+001 1.25e+000
  59  3.3544665e+010  3.3544595e+010 3.12e+003 2.23e-001 4.83e+001 1.46e+000
  60  3.3544659e+010  3.3544593e+010 2.95e+003 2.11e-001 4.63e+001 1.53e+000
  61  3.3544628e+010  3.3544586e+010 2.11e+003 1.51e-001 3.86e+001 1.88e+000
  62  3.3544618e+010  3.3544584e+010 1.85e+003 1.32e-001 3.65e+001 2.00e+000
  63  3.3544616e+010  3.3544584e+010 1.78e+003 1.28e-001 3.58e+001 2.05e+000
  64  3.3544612e+010  3.3544581e+010 1.66e+003 1.19e-001 3.27e+001 2.27e+000
  65  3.3544587e+010  3.3544573e+010 1.03e+003 7.36e-002 2.50e+001 3.03e+000
  66  3.3544576e+010  3.3544570e+010 7.21e+002 5.17e-002 2.20e+001 3.51e+000
  67  3.3544565e+010  3.3544559e+010 4.55e+002 3.20e-002 1.11e+001 7.84e+000
  68  3.3544560e+010  3.3544556e+010 3.36e+002 2.37e-002 8.59e+000 1.05e+001
  69  3.3544548e+010  3.3544547e+010 9.44e+001 6.54e-003 2.79e+000 3.71e+001
  70  3.3544546e+010  3.3544547e+010 5.16e+001 3.32e-003 2.45e+000 4.25e+001
  71  3.3544546e+010  3.3544547e+010 5.00e+001 3.24e-003 2.31e+000 4.55e+001
  72  3.3544545e+010  3.3544545e+010 4.84e+001 3.02e-003 1.31e+000 8.93e+001
  73  3.3544544e+010  3.3544544e+010 2.91e+001 1.26e-003 3.75e-001 3.52e+002
  74  3.3544543e+010  3.3544543e+010 2.95e+001 5.13e-004 3.85e-002 3.28e+003
  75  3.3544543e+010  3.3544543e+010 4.89e+001 1.43e-004 1.06e-002 4.12e+003
  76  3.3544543e+010  3.3544543e+010 1.60e+002 1.05e-005 1.90e-003 2.30e+004
Barrier time = 37.38 sec. (13587.60 ticks)
Parallel mode: deterministic, using up to 4 threads for concurrent optimization.

Dual crossover.
  Dual:  Fixing 124506 variables.
   124505 DMoves:  Infeasibility 1.30358155e-011  Objective 3.35445428e+010
   122730 DMoves:  Infeasibility 1.34881828e-011  Objective 3.35445428e+010
   121850 DMoves:  Infeasibility 1.41562595e-011  Objective 3.35445428e+010
   120984 DMoves:  Infeasibility 1.39140088e-011  Objective 3.35445428e+010
   116600 DMoves:  Infeasibility 1.39800671e-011  Objective 3.35445428e+010
   110430 DMoves:  Infeasibility 1.45321810e-011  Objective 3.35445428e+010
   107385 DMoves:  Infeasibility 1.44927681e-011  Objective 3.35445428e+010
   104404 DMoves:  Infeasibility 1.40535639e-011  Objective 3.35445428e+010
   101238 DMoves:  Infeasibility 1.42431900e-011  Objective 3.35445428e+010
    82651 DMoves:  Infeasibility 1.45732593e-011  Objective 3.35445428e+010
    78803 DMoves:  Infeasibility 1.39651901e-011  Objective 3.35445428e+010
    74792 DMoves:  Infeasibility 1.42470757e-011  Objective 3.35445428e+010
    63244 DMoves:  Infeasibility 1.48010770e-011  Objective 3.35445428e+010
    59099 DMoves:  Infeasibility 1.45136403e-011  Objective 3.35445428e+010
    34043 DMoves:  Infeasibility 1.38589973e-011  Objective 3.35445428e+010
    22732 DMoves:  Infeasibility 1.41470446e-011  Objective 3.35445428e+010
        0 DMoves:  Infeasibility 2.35430798e-011  Objective 3.35445428e+010
  Dual:  Pushed 102197, exchanged 22309.
  Primal:  Fixing 4499 variables.
     4498 PMoves:  Infeasibility 3.33099143e-001  Objective 3.35445429e+010
Using devex.

Primal simplex solved model.

Total crossover time = 8.20 sec. (6359.57 ticks)

Total time on 4 threads = 46.33 sec. (20338.60 ticks)
LP status(1): optimal
Cplex Time: 46.33sec (det. 20339.53 ticks)

Optimal solution found.
Objective : 33544542852.728607

--- Scenario scen1:     Records read:    1
--- Solution statistics for scenario scen1
---   Solver Status    1 Normal Completion         
---   Model Status     1 Optimal                   
---   Objective Value  33544542852.7286
---   Resource Usage   46985
---   Total Time (ms)  47156
--- Restarting execution
--- DIETER.gms(3202) 145 Mb
--- Reading solution for model DIETER
--- Executing after solve: elapsed 0:01:44.901
--- DIETER.gms(3202) 146 Mb
---
--- scattering and reading gdx file
---
--- DIETER.gms(3202) 146 Mb
--- marginal Id = con5a_minRES maps to marginal_con5a
--- marginal Id = con1a_bal maps to marginal_con1a
--- level    Id = Z maps to lev_Z
--- level    Id = G_L maps to lev_G_L
--- level    Id = G_UP maps to lev_G_UP
--- level    Id = G_DO maps to lev_G_DO
--- level    Id = G_RES maps to lev_G_RES
--- level    Id = CU maps to lev_CU
--- level    Id = STO_IN maps to lev_STO_IN
--- level    Id = STO_OUT maps to lev_STO_OUT
--- level    Id = STO_L maps to lev_STO_L
--- level    Id = N_TECH maps to lev_N_TECH
--- level    Id = N_STO_E maps to lev_N_STO_E
--- level    Id = N_STO_P maps to lev_N_STO_P
--- level    Id = NTC maps to lev_NTC
--- level    Id = F maps to lev_F
--- level    Id = RSVR_OUT maps to lev_RSVR_OUT
--- level    Id = RSVR_L maps to lev_RSVR_L
--- level    Id = N_RSVR_E maps to lev_N_RSVR_E
--- level    Id = N_RSVR_P maps to lev_N_RSVR_P
--- level    Id = G_INFES maps to lev_G_INFES
--- DIETER.gms(3202) 147 Mb
--- GDXin=C:\Users\Lenovo\Documents\GitHub\prosumage\Code\Prosumage_Opt\Dieter_Module\Original\225b\scenrep.dat
--- Scatter finished in 79 ms
--- DIETER.gms(4620) 148 Mb
--- GDX File C:\Users\Lenovo\Documents\GitHub\prosumage\Code\Prosumage_Opt\Dieter_Module\Original\results.gdx
--- DIETER.gms(4759) 148 Mb
--- GDX File C:\Users\Lenovo\Documents\GitHub\prosumage\Code\Prosumage_Opt\Dieter_Module\Original\results_to_excel.gdx
--- DIETER.gms(4824) 148 Mb

GDXXRW           24.7.4 r58773 Released Sep 19, 2016 VS8 x86 32bit/MS Windows 
Input file : C:\Users\Lenovo\Documents\GitHub\prosumage\Code\Prosumage_Opt\Dieter_Module\Original\results_to_excel.gdx
Output file: C:\Users\Lenovo\Documents\GitHub\prosumage\Code\Prosumage_Opt\Dieter_Module\Original\results_to_excel.xlsx
Total time = 922 Ms
--- DIETER.gms(4825) 148 Mb

GDXXRW           24.7.4 r58773 Released Sep 19, 2016 VS8 x86 32bit/MS Windows 
Input file : C:\Users\Lenovo\Documents\GitHub\prosumage\Code\Prosumage_Opt\Dieter_Module\Original\results_to_excel.gdx
Output file: C:\Users\Lenovo\Documents\GitHub\prosumage\Code\Prosumage_Opt\Dieter_Module\Original\results_to_excel.xlsx
**** Symbol excel_cost_building_heat not found

Any changes made to the spreadsheet were not saved
Total time = 1578 Ms
--- DIETER.gms(4826) 148 Mb

GDXXRW           24.7.4 r58773 Released Sep 19, 2016 VS8 x86 32bit/MS Windows 
Input file : C:\Users\Lenovo\Documents\GitHub\prosumage\Code\Prosumage_Opt\Dieter_Module\Original\results_to_excel.gdx
Output file: C:\Users\Lenovo\Documents\GitHub\prosumage\Code\Prosumage_Opt\Dieter_Module\Original\results_to_excel.xlsx
**** Symbol excel_cost_building_heat_other not found

Any changes made to the spreadsheet were not saved
Total time = 1375 Ms
--- DIETER.gms(4827) 148 Mb

GDXXRW           24.7.4 r58773 Released Sep 19, 2016 VS8 x86 32bit/MS Windows 
Input file : C:\Users\Lenovo\Documents\GitHub\prosumage\Code\Prosumage_Opt\Dieter_Module\Original\results_to_excel.gdx
Output file: C:\Users\Lenovo\Documents\GitHub\prosumage\Code\Prosumage_Opt\Dieter_Module\Original\results_to_excel.xlsx
**** Symbol excel_cost_building not found

Any changes made to the spreadsheet were not saved
Total time = 1406 Ms
--- DIETER.gms(4828) 148 Mb

GDXXRW           24.7.4 r58773 Released Sep 19, 2016 VS8 x86 32bit/MS Windows 
Input file : C:\Users\Lenovo\Documents\GitHub\prosumage\Code\Prosumage_Opt\Dieter_Module\Original\results_to_excel.gdx
Output file: C:\Users\Lenovo\Documents\GitHub\prosumage\Code\Prosumage_Opt\Dieter_Module\Original\results_to_excel.xlsx
**** Symbol excel_heat not found

Any changes made to the spreadsheet were not saved
Total time = 1359 Ms
--- DIETER.gms(4829) 148 Mb

GDXXRW           24.7.4 r58773 Released Sep 19, 2016 VS8 x86 32bit/MS Windows 
Input file : C:\Users\Lenovo\Documents\GitHub\prosumage\Code\Prosumage_Opt\Dieter_Module\Original\results_to_excel.gdx
Output file: C:\Users\Lenovo\Documents\GitHub\prosumage\Code\Prosumage_Opt\Dieter_Module\Original\results_to_excel.xlsx
Total time = 1625 Ms
--- DIETER.gms(4830) 148 Mb

GDXXRW           24.7.4 r58773 Released Sep 19, 2016 VS8 x86 32bit/MS Windows 
Input file : C:\Users\Lenovo\Documents\GitHub\prosumage\Code\Prosumage_Opt\Dieter_Module\Original\results_to_excel.gdx
Output file: C:\Users\Lenovo\Documents\GitHub\prosumage\Code\Prosumage_Opt\Dieter_Module\Original\results_to_excel.xlsx
Total time = 1640 Ms
--- DIETER.gms(4831) 148 Mb

GDXXRW           24.7.4 r58773 Released Sep 19, 2016 VS8 x86 32bit/MS Windows 
Input file : C:\Users\Lenovo\Documents\GitHub\prosumage\Code\Prosumage_Opt\Dieter_Module\Original\results_to_excel.gdx
Output file: C:\Users\Lenovo\Documents\GitHub\prosumage\Code\Prosumage_Opt\Dieter_Module\Original\results_to_excel.xlsx
Total time = 1672 Ms
--- DIETER.gms(4836) 148 Mb

GDXXRW           24.7.4 r58773 Released Sep 19, 2016 VS8 x86 32bit/MS Windows 
Input file : C:\Users\Lenovo\Documents\GitHub\prosumage\Code\Prosumage_Opt\Dieter_Module\Original\results_to_excel.gdx
Output file: C:\Users\Lenovo\Documents\GitHub\prosumage\Code\Prosumage_Opt\Dieter_Module\Original\results_to_excel.xlsx
Total time = 1594 Ms
--- GDX File C:\Users\Lenovo\Documents\GitHub\prosumage\Code\Prosumage_Opt\Dieter_Module\Original\test.gdx
*** Status: Normal completion
--- Job DIETER.gms Stop 10/22/18 18:17:19 elapsed 0:02:00.812
